nN = 8;
nR = 32;
nH = 2;

a = [[21, 22, 17, 16, 17, 24, 17, 15, 25, 18, 18, 21, 19, 23, 24, 25, 25, 16, 22, 20, 20, 20, 20, 21, 24, 19, 22, 15, 20, 17, 17, 22], [18, 24, 18, 22, 19, 25, 23, 15, 24, 22, 19, 19, 20, 25, 23, 25, 20, 16, 22, 24, 23, 17, 24, 18, 18, 22, 15, 20, 17, 19, 15, 22], [24, 20, 20, 15, 21, 15, 21, 22, 19, 16, 16, 19, 21, 21, 15, 17, 24, 17, 19, 18, 21, 25, 17, 24, 21, 24, 25, 17, 19, 24, 21, 22], [21, 20, 16, 21, 20, 18, 22, 17, 18, 19, 16, 15, 21, 24, 23, 19, 20, 20, 16, 16, 21, 17, 17, 20, 22, 21, 16, 16, 15, 17, 24, 24], [20, 19, 20, 25, 17, 22, 17, 18, 20, 23, 20, 16, 17, 24, 18, 16, 20, 23, 22, 15, 15, 23, 18, 21, 25, 20, 18, 19, 24, 25, 17, 16], [17, 24, 22, 23, 17, 20, 19, 16, 24, 21, 25, 16, 25, 23, 22, 23, 15, 15, 15, 20, 20, 21, 23, 24, 21, 25, 23, 22, 25, 24, 21, 17], [15, 22, 23, 24, 17, 23, 16, 16, 18, 19, 15, 15, 23, 18, 24, 25, 18, 25, 18, 15, 16, 22, 19, 18, 19, 22, 18, 23, 16, 15, 25, 25], [20, 18, 18, 24, 25, 20, 16, 19, 25, 24, 25, 24, 15, 22, 21, 23, 15, 24, 17, 15, 24, 16, 25, 19, 19, 22, 17, 16, 15, 20, 20, 18]];
c = [[[0, 0, 0, 0, 0, 0, 0, 0, 0, 0, 0, 0, 0, 0, 0, 0, 0, 0, 0, 0, 0, 0, 0, 0, 0, 0, 0, 0, 0, 0, 0, 0], [42, 34, 41, 49, 48, 43, 37, 34, 35, 45, 50, 37, 34, 33, 35, 42, 49, 34, 47, 41, 35, 38, 43, 37, 40, 45, 44, 33, 39, 46, 31, 40], [30, 34, 49, 33, 35, 33, 47, 38, 50, 42, 40, 33, 42, 37, 43, 48, 39, 37, 43, 43, 46, 33, 34, 40, 48, 47, 32, 48, 30, 37, 40, 47], [39, 45, 50, 40, 40, 47, 34, 49, 49, 35, 40, 46, 33, 49, 36, 42, 48, 32, 45, 37, 35, 45, 45, 50, 36, 34, 35, 49, 31, 49, 43, 44], [37, 42, 33, 42, 42, 50, 47, 35, 38, 41, 46, 49, 43, 50, 34, 36, 47, 31, 43, 30, 33, 36, 44, 30, 42, 49, 36, 39, 41, 35, 47, 36], [43, 40, 36, 39, 34, 35, 46, 32, 43, 45, 45, 31, 42, 41, 35, 30, 47, 45, 35, 34, 35, 44, 40, 42, 34, 36, 48, 46, 48, 50, 35, 38], [50, 31, 37, 39, 50, 33, 42, 33, 45, 32, 37, 41, 30, 49, 49, 37, 42, 35, 42, 30, 44, 44, 30, 38, 50, 33, 44, 44, 37, 47, 47, 39], [44, 48, 45, 44, 46, 34, 33, 41, 35, 49, 38, 39, 40, 40, 46, 39, 40, 30, 43, 38, 46, 42, 44, 38, 32, 37, 32, 30, 41, 40, 36, 42]], [[0, 0, 0, 0, 0, 0, 0, 0, 0, 0, 0, 0, 0, 0, 0, 0, 0, 0, 0, 0, 0, 0, 0, 0, 0, 0, 0, 0, 0, 0, 0, 0], [0, 0, 0, 0, 0, 0, 0, 0, 0, 0, 0, 0, 0, 0, 0, 0, 0, 0, 0, 0, 0, 0, 0, 0, 0, 0, 0, 0, 0, 0, 0, 0], [36, 39, 37, 32, 42, 38, 40, 35, 49, 33, 30, 43, 45, 35, 36, 44, 41, 40, 39, 33, 38, 44, 35, 38, 40, 42, 48, 30, 34, 43, 31, 32], [47, 33, 47, 40, 37, 34, 37, 42, 38, 45, 36, 36, 40, 49, 50, 49, 33, 40, 30, 48, 35, 35, 50, 47, 32, 50, 39, 49, 45, 33, 50, 48], [41, 33, 39, 45, 50, 37, 48, 30, 47, 49, 37, 37, 33, 47, 50, 40, 37, 41, 32, 50, 47, 32, 35, 37, 43, 31, 32, 33, 31, 40, 37, 36], [32, 48, 44, 46, 49, 46, 42, 50, 34, 33, 42, 41, 30, 33, 41, 39, 31, 34, 42, 40, 35, 48, 35, 44, 44, 43, 44, 33, 42, 43, 37, 41], [33, 35, 31, 43, 36, 35, 30, 42, 30, 45, 50, 47, 49, 38, 38, 43, 36, 30, 42, 46, 45, 39, 33, 48, 40, 40, 37, 34, 38, 38, 34, 31], [41, 42, 37, 33, 33, 34, 42, 40, 50, 30, 46, 49, 50, 38, 44, 36, 36, 39, 31, 39, 32, 41, 47, 32, 39, 49, 38, 30, 35, 35, 33, 46]], [[0, 0, 0, 0, 0, 0, 0, 0, 0, 0, 0, 0, 0, 0, 0, 0, 0, 0, 0, 0, 0, 0, 0, 0, 0, 0, 0, 0, 0, 0, 0, 0], [0, 0, 0, 0, 0, 0, 0, 0, 0, 0, 0, 0, 0, 0, 0, 0, 0, 0, 0, 0, 0, 0, 0, 0, 0, 0, 0, 0, 0, 0, 0, 0], [0, 0, 0, 0, 0, 0, 0, 0, 0, 0, 0, 0, 0, 0, 0, 0, 0, 0, 0, 0, 0, 0, 0, 0, 0, 0, 0, 0, 0, 0, 0, 0], [49, 40, 44, 50, 33, 46, 42, 49, 33, 48, 50, 47, 44, 49, 40, 45, 31, 41, 30, 41, 41, 36, 33, 44, 43, 42, 49, 50, 36, 38, 44, 40], [30, 38, 41, 41, 50, 48, 41, 49, 48, 40, 35, 36, 38, 38, 35, 31, 33, 42, 35, 31, 46, 41, 50, 46, 32, 31, 33, 44, 36, 33, 43, 32], [39, 43, 39, 32, 36, 31, 33, 46, 50, 50, 43, 45, 31, 45, 43, 42, 50, 37, 34, 35, 49, 35, 34, 42, 37, 48, 43, 45, 33, 37, 44, 42], [41, 30, 42, 46, 45, 35, 38, 31, 33, 31, 35, 38, 49, 48, 34, 39, 43, 40, 32, 34, 43, 50, 38, 40, 39, 48, 48, 48, 46, 30, 42, 33], [48, 50, 41, 40, 30, 39, 39, 50, 30, 42, 36, 38, 34, 46, 35, 34, 32, 30, 34, 32, 31, 30, 50, 46, 35, 49, 44, 34, 40, 42, 50, 49]], [[0, 0, 0, 0, 0, 0, 0, 0, 0, 0, 0, 0, 0, 0, 0, 0, 0, 0, 0, 0, 0, 0, 0, 0, 0, 0, 0, 0, 0, 0, 0, 0], [0, 0, 0, 0, 0, 0, 0, 0, 0, 0, 0, 0, 0, 0, 0, 0, 0, 0, 0, 0, 0, 0, 0, 0, 0, 0, 0, 0, 0, 0, 0, 0], [0, 0, 0, 0, 0, 0, 0, 0, 0, 0, 0, 0, 0, 0, 0, 0, 0, 0, 0, 0, 0, 0, 0, 0, 0, 0, 0, 0, 0, 0, 0, 0], [0, 0, 0, 0, 0, 0, 0, 0, 0, 0, 0, 0, 0, 0, 0, 0, 0, 0, 0, 0, 0, 0, 0, 0, 0, 0, 0, 0, 0, 0, 0, 0], [43, 45, 38, 30, 38, 50, 47, 42, 45, 41, 35, 46, 38, 45, 38, 46, 38, 34, 50, 34, 42, 44, 34, 45, 44, 30, 35, 40, 39, 32, 34, 34], [32, 46, 45, 46, 32, 49, 32, 39, 44, 31, 49, 46, 36, 38, 45, 46, 44, 30, 32, 44, 31, 30, 39, 33, 45, 42, 50, 39, 39, 31, 34, 46], [36, 45, 45, 50, 39, 46, 36, 47, 45, 48, 46, 30, 30, 47, 35, 46, 39, 31, 48, 40, 43, 48, 38, 33, 31, 48, 49, 46, 31, 35, 32, 32], [50, 48, 39, 34, 50, 48, 31, 50, 39, 34, 43, 37, 47, 40, 44, 33, 44, 41, 36, 45, 40, 42, 31, 49, 42, 38, 45, 38, 45, 33, 41, 46]], [[0, 0, 0, 0, 0, 0, 0, 0, 0, 0, 0, 0, 0, 0, 0, 0, 0, 0, 0, 0, 0, 0, 0, 0, 0, 0, 0, 0, 0, 0, 0, 0], [0, 0, 0, 0, 0, 0, 0, 0, 0, 0, 0, 0, 0, 0, 0, 0, 0, 0, 0, 0, 0, 0, 0, 0, 0, 0, 0, 0, 0, 0, 0, 0], [0, 0, 0, 0, 0, 0, 0, 0, 0, 0, 0, 0, 0, 0, 0, 0, 0, 0, 0, 0, 0, 0, 0, 0, 0, 0, 0, 0, 0, 0, 0, 0], [0, 0, 0, 0, 0, 0, 0, 0, 0, 0, 0, 0, 0, 0, 0, 0, 0, 0, 0, 0, 0, 0, 0, 0, 0, 0, 0, 0, 0, 0, 0, 0], [0, 0, 0, 0, 0, 0, 0, 0, 0, 0, 0, 0, 0, 0, 0, 0, 0, 0, 0, 0, 0, 0, 0, 0, 0, 0, 0, 0, 0, 0, 0, 0], [32, 32, 36, 45, 45, 47, 47, 46, 37, 41, 30, 34, 50, 37, 34, 37, 43, 40, 50, 30, 31, 46, 30, 46, 44, 47, 49, 37, 33, 46, 30, 44], [35, 41, 44, 30, 36, 36, 36, 46, 31, 32, 33, 38, 47, 38, 49, 46, 46, 49, 37, 34, 50, 43, 33, 49, 35, 47, 38, 36, 47, 42, 46, 32], [34, 38, 32, 34, 35, 43, 43, 49, 33, 45, 34, 38, 37, 42, 38, 40, 41, 32, 34, 34, 38, 46, 30, 40, 42, 38, 36, 40, 38, 42, 46, 47]], [[0, 0, 0, 0, 0, 0, 0, 0, 0, 0, 0, 0, 0, 0, 0, 0, 0, 0, 0, 0, 0, 0, 0, 0, 0, 0, 0, 0, 0, 0, 0, 0], [0, 0, 0, 0, 0, 0, 0, 0, 0, 0, 0, 0, 0, 0, 0, 0, 0, 0, 0, 0, 0, 0, 0, 0, 0, 0, 0, 0, 0, 0, 0, 0], [0, 0, 0, 0, 0, 0, 0, 0, 0, 0, 0, 0, 0, 0, 0, 0, 0, 0, 0, 0, 0, 0, 0, 0, 0, 0, 0, 0, 0, 0, 0, 0], [0, 0, 0, 0, 0, 0, 0, 0, 0, 0, 0, 0, 0, 0, 0, 0, 0, 0, 0, 0, 0, 0, 0, 0, 0, 0, 0, 0, 0, 0, 0, 0], [0, 0, 0, 0, 0, 0, 0, 0, 0, 0, 0, 0, 0, 0, 0, 0, 0, 0, 0, 0, 0, 0, 0, 0, 0, 0, 0, 0, 0, 0, 0, 0], [0, 0, 0, 0, 0, 0, 0, 0, 0, 0, 0, 0, 0, 0, 0, 0, 0, 0, 0, 0, 0, 0, 0, 0, 0, 0, 0, 0, 0, 0, 0, 0], [49, 34, 42, 50, 33, 43, 36, 37, 37, 30, 45, 46, 34, 49, 50, 48, 48, 49, 46, 47, 45, 35, 44, 46, 38, 31, 40, 35, 42, 47, 41, 41], [45, 46, 44, 37, 41, 38, 32, 33, 47, 40, 32, 40, 49, 46, 50, 42, 35, 45, 32, 38, 36, 37, 44, 39, 49, 44, 41, 34, 35, 44, 45, 33]], [[0, 0, 0, 0, 0, 0, 0, 0, 0, 0, 0, 0, 0, 0, 0, 0, 0, 0, 0, 0, 0, 0, 0, 0, 0, 0, 0, 0, 0, 0, 0, 0], [0, 0, 0, 0, 0, 0, 0, 0, 0, 0, 0, 0, 0, 0, 0, 0, 0, 0, 0, 0, 0, 0, 0, 0, 0, 0, 0, 0, 0, 0, 0, 0], [0, 0, 0, 0, 0, 0, 0, 0, 0, 0, 0, 0, 0, 0, 0, 0, 0, 0, 0, 0, 0, 0, 0, 0, 0, 0, 0, 0, 0, 0, 0, 0], [0, 0, 0, 0, 0, 0, 0, 0, 0, 0, 0, 0, 0, 0, 0, 0, 0, 0, 0, 0, 0, 0, 0, 0, 0, 0, 0, 0, 0, 0, 0, 0], [0, 0, 0, 0, 0, 0, 0, 0, 0, 0, 0, 0, 0, 0, 0, 0, 0, 0, 0, 0, 0, 0, 0, 0, 0, 0, 0, 0, 0, 0, 0, 0], [0, 0, 0, 0, 0, 0, 0, 0, 0, 0, 0, 0, 0, 0, 0, 0, 0, 0, 0, 0, 0, 0, 0, 0, 0, 0, 0, 0, 0, 0, 0, 0], [0, 0, 0, 0, 0, 0, 0, 0, 0, 0, 0, 0, 0, 0, 0, 0, 0, 0, 0, 0, 0, 0, 0, 0, 0, 0, 0, 0, 0, 0, 0, 0], [50, 35, 32, 30, 32, 36, 42, 43, 48, 48, 48, 43, 39, 48, 36, 40, 30, 31, 40, 36, 34, 39, 33, 33, 32, 38, 39, 33, 33, 44, 50, 47]], [[0, 0, 0, 0, 0, 0, 0, 0, 0, 0, 0, 0, 0, 0, 0, 0, 0, 0, 0, 0, 0, 0, 0, 0, 0, 0, 0, 0, 0, 0, 0, 0], [0, 0, 0, 0, 0, 0, 0, 0, 0, 0, 0, 0, 0, 0, 0, 0, 0, 0, 0, 0, 0, 0, 0, 0, 0, 0, 0, 0, 0, 0, 0, 0], [0, 0, 0, 0, 0, 0, 0, 0, 0, 0, 0, 0, 0, 0, 0, 0, 0, 0, 0, 0, 0, 0, 0, 0, 0, 0, 0, 0, 0, 0, 0, 0], [0, 0, 0, 0, 0, 0, 0, 0, 0, 0, 0, 0, 0, 0, 0, 0, 0, 0, 0, 0, 0, 0, 0, 0, 0, 0, 0, 0, 0, 0, 0, 0], [0, 0, 0, 0, 0, 0, 0, 0, 0, 0, 0, 0, 0, 0, 0, 0, 0, 0, 0, 0, 0, 0, 0, 0, 0, 0, 0, 0, 0, 0, 0, 0], [0, 0, 0, 0, 0, 0, 0, 0, 0, 0, 0, 0, 0, 0, 0, 0, 0, 0, 0, 0, 0, 0, 0, 0, 0, 0, 0, 0, 0, 0, 0, 0], [0, 0, 0, 0, 0, 0, 0, 0, 0, 0, 0, 0, 0, 0, 0, 0, 0, 0, 0, 0, 0, 0, 0, 0, 0, 0, 0, 0, 0, 0, 0, 0], [0, 0, 0, 0, 0, 0, 0, 0, 0, 0, 0, 0, 0, 0, 0, 0, 0, 0, 0, 0, 0, 0, 0, 0, 0, 0, 0, 0, 0, 0, 0, 0]]];

q = [[[12, 120], [24, 120], [13, 107], [15, 112], [19, 115], [7, 125], [6, 116], [25, 109], [15, 115], [19, 119], [12, 119], [24, 117], [24, 113], [25, 114], [15, 119], [19, 110], [15, 116], [24, 118], [8, 116], [18, 119], [9, 124], [23, 108], [10, 120], [8, 108], [11, 122], [10, 105], [18, 120], [21, 107], [20, 124], [14, 115], [20, 123], [16, 114]], [[10, 110], [20, 122], [10, 105], [24, 115], [10, 118], [25, 111], [11, 122], [11, 114], [23, 106], [14, 118], [6, 105], [16, 111], [5, 105], [20, 125], [15, 110], [11, 111], [11, 108], [19, 121], [5, 123], [7, 107], [25, 119], [9, 111], [5, 114], [24, 112], [6, 115], [13, 111], [13, 112], [25, 117], [19, 109], [18, 108], [22, 110], [7, 122]], [[24, 108], [6, 106], [16, 113], [19, 123], [18, 114], [9, 117], [20, 107], [23, 121], [19, 120], [23, 116], [15, 110], [10, 112], [25, 110], [25, 118], [12, 118], [17, 107], [16, 111], [8, 107], [10, 106], [9, 120], [9, 119], [21, 107], [19, 115], [11, 124], [14, 114], [22, 120], [20, 112], [23, 118], [23, 118], [9, 107], [8, 125], [25, 108]], [[17, 115], [19, 119], [11, 122], [25, 119], [24, 125], [11, 111], [16, 115], [8, 125], [22, 116], [18, 125], [5, 123], [6, 121], [21, 105], [22, 105], [19, 115], [6, 115], [14, 125], [14, 121], [13, 113], [12, 117], [21, 107], [20, 105], [8, 115], [12, 124], [25, 125], [11, 119], [13, 119], [20, 122], [22, 119], [22, 118], [15, 108], [8, 113]], [[8, 124], [8, 114], [19, 106], [24, 120], [25, 117], [20, 115], [18, 117], [22, 105], [9, 116], [21, 118], [19, 121], [18, 117], [22, 113], [5, 105], [6, 111], [6, 120], [23, 117], [15, 116], [12, 110], [25, 125], [14, 119], [10, 119], [18, 108], [14, 105], [10, 122], [5, 114], [22, 106], [7, 118], [17, 120], [16, 122], [21, 114], [13, 110]], [[10, 107], [23, 109], [10, 105], [17, 111], [19, 110], [7, 117], [11, 118], [22, 113], [25, 122], [19, 125], [12, 118], [25, 111], [5, 125], [20, 110], [9, 108], [17, 119], [11, 110], [24, 117], [7, 120], [13, 108], [23, 110], [19, 119], [25, 110], [7, 106], [6, 110], [13, 123], [9, 120], [5, 124], [15, 107], [7, 106], [21, 117], [7, 112]], [[6, 121], [6, 107], [20, 111], [5, 107], [21, 114], [7, 110], [13, 122], [7, 122], [11, 122], [7, 113], [19, 110], [16, 118], [15, 123], [22, 112], [19, 125], [13, 105], [24, 121], [12, 116], [8, 124], [25, 125], [17, 116], [12, 121], [14, 105], [5, 118], [11, 105], [9, 116], [18, 105], [5, 121], [11, 118], [22, 107], [14, 117], [12, 124]], [[13, 124], [21, 108], [7, 116], [8, 110], [24, 119], [15, 109], [9, 119], [6, 106], [16, 110], [5, 119], [6, 125], [10, 106], [23, 124], [20, 107], [8, 116], [24, 118], [13, 108], [9, 125], [7, 119], [23, 123], [6, 117], [21, 113], [25, 116], [9, 109], [6, 124], [17, 114], [21, 121], [6, 110], [8, 111], [17, 106], [18, 121], [25, 116]]];
Q = [[51, 371], [45, 363], [52, 366], [50, 375], [49, 369], [46, 365], [42, 371], [44, 369]];
